Version identifier: 12.10.0.0 | 2019-11-26 | 843d4de
CPXPARAM_WorkMem                                 28672
Tried aggregator 2 times.
Aggregator did 60 substitutions.
Reduced MIP has 203 rows, 240 columns, and 906 nonzeros.
Reduced MIP has 240 binaries, 0 generals, 0 SOSs, and 0 indicators.
Presolve time = 0,00 sec. (0,86 ticks)
Found incumbent of value 180,000000 after 0,00 sec. (1,52 ticks)
Probing time = 0,00 sec. (0,31 ticks)
Tried aggregator 1 time.
Detecting symmetries...
MIP Presolve eliminated 48 rows and 0 columns.
MIP Presolve added 96 rows and 0 columns.
Reduced MIP has 251 rows, 240 columns, and 954 nonzeros.
Reduced MIP has 240 binaries, 0 generals, 0 SOSs, and 0 indicators.
Presolve time = 0,00 sec. (1,03 ticks)
Probing time = 0,00 sec. (0,30 ticks)
Clique table members: 626.
MIP emphasis: balance optimality and feasibility.
MIP search method: dynamic search.
Parallel mode: deterministic, using up to 16 threads.
Root relaxation solution time = 0,00 sec. (1,22 ticks)

        Nodes                                         Cuts/
   Node  Left     Objective  IInf  Best Integer    Best Bound    ItCnt     Gap

*     0+    0                          180,0000        0,0000           100,00%
*     0+    0                          124,0000        0,0000           100,00%
*     0+    0                          121,0000        0,0000           100,00%
*     0+    0                          118,0000        0,0000           100,00%
      0     0       60,0000   219      118,0000       60,0000      123   49,15%
      0     0       60,9696   219      118,0000     Cuts: 162      206   48,33%
      0     0       62,3657   219      118,0000     Cuts: 162      275   47,15%
      0     0       62,7659   219      118,0000     Cuts: 162      313   46,81%
      0     0       62,9377   219      118,0000     Cuts: 162      347   46,66%
      0     0       63,0014   219      118,0000       Cuts: 2      361   46,61%
Detecting symmetries...
      0     0       63,0555   219      118,0000      Fract: 1      369   46,56%
*     0+    0                          112,0000       63,0555            43,70%
Detecting symmetries...
      0     2       63,0555   239      112,0000       65,5851      369   41,44%
Elapsed time = 0,13 sec. (65,01 ticks, tree = 0,02 MB, solutions = 5)
*  1640+  994                          109,0000       74,1224            32,00%
   2926  1503      106,4738    12      109,0000       83,5284    88055   23,37%
   3525  2076       93,5353   165      109,0000       88,1376   123006   19,14%

Performing restart 1

Repeating presolve.
Tried aggregator 1 time.
Reduced MIP has 251 rows, 240 columns, and 954 nonzeros.
Reduced MIP has 240 binaries, 0 generals, 0 SOSs, and 0 indicators.
Presolve time = 0,00 sec. (0,55 ticks)
Tried aggregator 1 time.
Reduced MIP has 251 rows, 240 columns, and 954 nonzeros.
Reduced MIP has 240 binaries, 0 generals, 0 SOSs, and 0 indicators.
Presolve time = 0,00 sec. (0,71 ticks)
Represolve time = 0,01 sec. (5,80 ticks)
   4504     0       64,0026   239      109,0000       Cuts: 7   169586   18,05%
   4504     0       64,5222   239      109,0000       Cuts: 4   169635   18,05%
   4504     0       65,1418   239      109,0000      Cuts: 10   169698   18,05%
   4504     0       65,5894   239      109,0000       Cuts: 7   169761   18,05%
   4504     2       65,5894   239      109,0000       89,3283   169761   18,05%
   5415   542      106,8870    30      109,0000       89,3283   189091   18,05%
   7832  2547      105,4103   124      109,0000       89,3283   250504   18,05%
  10235  4168      102,8467   156      109,0000       89,3283   299448   18,05%

Performing restart 2

Repeating presolve.
Tried aggregator 1 time.
Reduced MIP has 251 rows, 240 columns, and 954 nonzeros.
Reduced MIP has 240 binaries, 0 generals, 0 SOSs, and 0 indicators.
Presolve time = 0,00 sec. (0,55 ticks)
Tried aggregator 1 time.
Reduced MIP has 251 rows, 240 columns, and 954 nonzeros.
Reduced MIP has 240 binaries, 0 generals, 0 SOSs, and 0 indicators.
Presolve time = 0,00 sec. (0,71 ticks)
Represolve time = 0,02 sec. (13,42 ticks)
  10272     0       66,2692   239      109,0000       Cuts: 3   314749   18,05%
  10272     0       66,2808   239      109,0000   ZeroHalf: 1   314764   18,05%
  10272     0       66,2814   239      109,0000   ZeroHalf: 1   314765   18,05%
  10272     0       66,2854   239      109,0000   ZeroHalf: 1   314772   18,05%
  10272     0       66,2868   239      109,0000   ZeroHalf: 1   314777   18,05%
  10272     0       66,4800   239      109,0000      Fract: 1   314830   18,05%
  10272     2       66,4800   239      109,0000       89,3283   314830   18,05%
  12694  1293       89,4129   189      109,0000       89,3283   393788   18,05%
  15381  2607      106,0561   104      109,0000       94,5208   497625   13,28%

Clique cuts applied:  51
Cover cuts applied:  384
Mixed integer rounding cuts applied:  42
Zero-half cuts applied:  1
Lift and project cuts applied:  3
Gomory fractional cuts applied:  43

Root node processing (before b&c):
  Real time             =    0,13 sec. (64,68 ticks)
Parallel b&c, 16 threads:
  Real time             =    3,92 sec. (3079,79 ticks)
  Sync time (average)   =    1,10 sec.
  Wait time (average)   =    0,01 sec.
                          ------------
Total (root+branch&cut) =    4,05 sec. (3144,47 ticks)
